(set-logic QF_NRA_ODE)
(declare-fun temperature () Real [0, 100])
(declare-fun u () Real [20, 100])
(declare-fun lt () Real [0.000000, 0.3])
(declare-fun gt () Real [0.000000, 4])
(declare-fun ._0 () Int [-100, 100] )
(declare-fun command_to_heater.0_0 () Int [-100, 100] )
(declare-fun chatter_detect.0_0 () Int [-100, 100] )
(declare-fun inc_0 () Int [-100, 100] )
(declare-fun command_to_heater.1_0 () Int [-100, 100] )
(declare-fun off_counter.0_0 () Int [-100, 100] )
(declare-fun on_counter.0_0 () Int [-100, 100] )
(declare-fun spec.select85_0 () Real [-100, 100] )
(declare-fun uVal.0_0 () Real [-100, 100] )
(declare-fun state_temperature_0 () Real [0, 100] )
(declare-fun chat_detect_0 () Int [0, 10] )
(declare-fun previous_cmd_to_heater_0 () Int [0, 5] )
(declare-fun on_count_0 () Int [0, 25] )
(declare-fun off_count_0 () Int [0, 25] )
(declare-fun cmd_to_heater_0 () Int [0, 5] )
(declare-fun next_u_0 () Real [20, 100] )
(declare-fun temperature_0_0 () Real [0, 100])
(declare-fun temperature_0_t () Real [0, 100])
(declare-fun u_0_0 () Real [20, 100])
(declare-fun u_0_t () Real [20, 100])
(declare-fun lt_0_0 () Real [0.000000, 0.3])
(declare-fun lt_0_t () Real [0.000000, 0.3])
(declare-fun gt_0_0 () Real [0.000000, 4])
(declare-fun gt_0_t () Real [0.000000, 4])
(declare-fun time_0 () Real [0.000000, 0.1])
(declare-fun mode_0 () Real [1.000000, 1.000000])
(declare-fun Noise__-1 () Real [0, 0])
(declare-fun ._1 () Int [-100, 100] )
(declare-fun command_to_heater.0_1 () Int [-100, 100] )
(declare-fun chatter_detect.0_1 () Int [-100, 100] )
(declare-fun inc_1 () Int [-100, 100] )
(declare-fun command_to_heater.1_1 () Int [-100, 100] )
(declare-fun off_counter.0_1 () Int [-100, 100] )
(declare-fun on_counter.0_1 () Int [-100, 100] )
(declare-fun spec.select85_1 () Real [-100, 100] )
(declare-fun uVal.0_1 () Real [-100, 100] )
(declare-fun state_temperature_1 () Real [0, 100] )
(declare-fun chat_detect_1 () Int [0, 10] )
(declare-fun previous_cmd_to_heater_1 () Int [0, 5] )
(declare-fun on_count_1 () Int [0, 25] )
(declare-fun off_count_1 () Int [0, 25] )
(declare-fun cmd_to_heater_1 () Int [0, 5] )
(declare-fun next_u_1 () Real [20, 100] )
(declare-fun temperature_1_0 () Real [0, 100])
(declare-fun temperature_1_t () Real [0, 100])
(declare-fun u_1_0 () Real [20, 100])
(declare-fun u_1_t () Real [20, 100])
(declare-fun lt_1_0 () Real [0.000000, 0.3])
(declare-fun lt_1_t () Real [0.000000, 0.3])
(declare-fun gt_1_0 () Real [0.000000, 4])
(declare-fun gt_1_t () Real [0.000000, 4])
(declare-fun time_1 () Real [0.000000, 0.3])
(declare-fun mode_1 () Real [1.000000, 1.000000])
(declare-fun ._2 () Int [-100, 100] )
(declare-fun command_to_heater.0_2 () Int [-100, 100] )
(declare-fun chatter_detect.0_2 () Int [-100, 100] )
(declare-fun inc_2 () Int [-100, 100] )
(declare-fun command_to_heater.1_2 () Int [-100, 100] )
(declare-fun off_counter.0_2 () Int [-100, 100] )
(declare-fun on_counter.0_2 () Int [-100, 100] )
(declare-fun spec.select85_2 () Real [-100, 100] )
(declare-fun uVal.0_2 () Real [-100, 100] )
(declare-fun state_temperature_2 () Real [0, 100] )
(declare-fun chat_detect_2 () Int [0, 10] )
(declare-fun previous_cmd_to_heater_2 () Int [0, 5] )
(declare-fun on_count_2 () Int [0, 25] )
(declare-fun off_count_2 () Int [0, 25] )
(declare-fun cmd_to_heater_2 () Int [0, 5] )
(declare-fun next_u_2 () Real [20, 100] )
(declare-fun temperature_2_0 () Real [0, 100])
(declare-fun temperature_2_t () Real [0, 100])
(declare-fun u_2_0 () Real [20, 100])
(declare-fun u_2_t () Real [20, 100])
(declare-fun lt_2_0 () Real [0.000000, 0.3])
(declare-fun lt_2_t () Real [0.000000, 0.3])
(declare-fun gt_2_0 () Real [0.000000, 4])
(declare-fun gt_2_t () Real [0.000000, 4])
(declare-fun time_2 () Real [0.000000, 0.3])
(declare-fun mode_2 () Real [1.000000, 1.000000])
(declare-fun ._3 () Int [-100, 100] )
(declare-fun command_to_heater.0_3 () Int [-100, 100] )
(declare-fun chatter_detect.0_3 () Int [-100, 100] )
(declare-fun inc_3 () Int [-100, 100] )
(declare-fun command_to_heater.1_3 () Int [-100, 100] )
(declare-fun off_counter.0_3 () Int [-100, 100] )
(declare-fun on_counter.0_3 () Int [-100, 100] )
(declare-fun spec.select85_3 () Real [-100, 100] )
(declare-fun uVal.0_3 () Real [-100, 100] )
(declare-fun state_temperature_3 () Real [0, 100] )
(declare-fun chat_detect_3 () Int [0, 10] )
(declare-fun previous_cmd_to_heater_3 () Int [0, 5] )
(declare-fun on_count_3 () Int [0, 25] )
(declare-fun off_count_3 () Int [0, 25] )
(declare-fun cmd_to_heater_3 () Int [0, 5] )
(declare-fun next_u_3 () Real [20, 100] )
(declare-fun temperature_3_0 () Real [0, 100])
(declare-fun temperature_3_t () Real [0, 100])
(declare-fun u_3_0 () Real [20, 100])
(declare-fun u_3_t () Real [20, 100])
(declare-fun lt_3_0 () Real [0.000000, 0.3])
(declare-fun lt_3_t () Real [0.000000, 0.3])
(declare-fun gt_3_0 () Real [0.000000, 4])
(declare-fun gt_3_t () Real [0.000000, 4])
(declare-fun time_3 () Real [0.000000, 0.3])
(declare-fun mode_3 () Real [1.000000, 1.000000])
(declare-fun ._4 () Int [-100, 100] )
(declare-fun command_to_heater.0_4 () Int [-100, 100] )
(declare-fun chatter_detect.0_4 () Int [-100, 100] )
(declare-fun inc_4 () Int [-100, 100] )
(declare-fun command_to_heater.1_4 () Int [-100, 100] )
(declare-fun off_counter.0_4 () Int [-100, 100] )
(declare-fun on_counter.0_4 () Int [-100, 100] )
(declare-fun spec.select85_4 () Real [-100, 100] )
(declare-fun uVal.0_4 () Real [-100, 100] )
(declare-fun state_temperature_4 () Real [0, 100] )
(declare-fun chat_detect_4 () Int [0, 10] )
(declare-fun previous_cmd_to_heater_4 () Int [0, 5] )
(declare-fun on_count_4 () Int [0, 25] )
(declare-fun off_count_4 () Int [0, 25] )
(declare-fun cmd_to_heater_4 () Int [0, 5] )
(declare-fun next_u_4 () Real [20, 100] )
(declare-fun temperature_4_0 () Real [0, 100])
(declare-fun temperature_4_t () Real [0, 100])
(declare-fun u_4_0 () Real [20, 100])
(declare-fun u_4_t () Real [20, 100])
(declare-fun lt_4_0 () Real [0.000000, 0.3])
(declare-fun lt_4_t () Real [0.000000, 0.3])
(declare-fun gt_4_0 () Real [0.000000, 4])
(declare-fun gt_4_t () Real [0.000000, 4])
(declare-fun time_4 () Real [0.000000, 0.3])
(declare-fun mode_4 () Real [1.000000, 1.000000])
(declare-fun ._5 () Int [-100, 100] )
(declare-fun command_to_heater.0_5 () Int [-100, 100] )
(declare-fun chatter_detect.0_5 () Int [-100, 100] )
(declare-fun inc_5 () Int [-100, 100] )
(declare-fun command_to_heater.1_5 () Int [-100, 100] )
(declare-fun off_counter.0_5 () Int [-100, 100] )
(declare-fun on_counter.0_5 () Int [-100, 100] )
(declare-fun spec.select85_5 () Real [-100, 100] )
(declare-fun uVal.0_5 () Real [-100, 100] )
(declare-fun state_temperature_5 () Real [0, 100] )
(declare-fun chat_detect_5 () Int [0, 10] )
(declare-fun previous_cmd_to_heater_5 () Int [0, 5] )
(declare-fun on_count_5 () Int [0, 25] )
(declare-fun off_count_5 () Int [0, 25] )
(declare-fun cmd_to_heater_5 () Int [0, 5] )
(declare-fun next_u_5 () Real [20, 100] )
(declare-fun temperature_5_0 () Real [0, 100])
(declare-fun temperature_5_t () Real [0, 100])
(declare-fun u_5_0 () Real [20, 100])
(declare-fun u_5_t () Real [20, 100])
(declare-fun lt_5_0 () Real [0.000000, 0.3])
(declare-fun lt_5_t () Real [0.000000, 0.3])
(declare-fun gt_5_0 () Real [0.000000, 4])
(declare-fun gt_5_t () Real [0.000000, 4])
(declare-fun time_5 () Real [0.000000, 0.3])
(declare-fun mode_5 () Real [1.000000, 1.000000])
(define-ode flow_1 ((= d/dt[gt] 1) (= d/dt[lt] 1) (= d/dt[temperature] (-(* 0.5 u)(* 0.5 temperature))) (= d/dt[u] 0)))
(assert (and (= lt_0_0 0) (= gt_0_0 0) (= u_0_0 20 )(<= temperature_0_0 75 )(>= temperature_0_0 55 )(= mode_0 1) (= chat_detect_0 0 ) (= previous_cmd_to_heater_0 0 ) (= on_count_0 0 ) (= off_count_0 0 ) (= cmd_to_heater_0 0 )  
 (= lt_0_t (+ lt_0_0 (* 1 0.1))) (= gt_0_t (+ gt_0_0 (* 1 0.1))) (= u_0_t (+ u_0_0 (* 0 0.1))) 
 (= [gt_0_t lt_0_t temperature_0_t u_0_t ] (integral 0. time_0 [gt_0_0 lt_0_0 temperature_0_0 u_0_0 ] flow_1))  
 (= mode_1 1) (= lt_0_t 0.1) (= gt_1_0 gt_0_t) (= lt_1_0 0)  
 (= temperature_1_0 temperature_0_t)(= state_temperature_0 temperature_0_t )  
 (=> (not (and (>= state_temperature_0 66 ) (< state_temperature_0 70 ) ) ) 
(and 
(=> (< state_temperature_0 70 ) 
(and 
(ite (< state_temperature_0 66 ) (= ._0 2 )(= ._0 previous_cmd_to_heater_0 ) ) 
) 
) 
) 
) 
(=> (and (>= state_temperature_0 66 ) (< state_temperature_0 70 ) ) (= command_to_heater.0_0 3 )) 
(=> (not (< state_temperature_0 70 ) ) (= command_to_heater.0_0 1 )) 
(=> (< state_temperature_0 70 ) (= command_to_heater.0_0 ._0 )) 
(ite (or (> on_count_0 4 ) (> off_count_0 4 ) ) (= chatter_detect.0_0 0 )(= chatter_detect.0_0 chat_detect_0 ) ) 
(ite (not (= command_to_heater.0_0 previous_cmd_to_heater_0 )) (= inc_0 1 ) (= inc_0 0 )) 
(ite (> (+ chatter_detect.0_0 inc_0 ) 4 ) (= command_to_heater.1_0 previous_cmd_to_heater_0 )(= command_to_heater.1_0 command_to_heater.0_0 ) ) 
(ite (= command_to_heater.1_0 1 ) (= off_counter.0_0 (+ off_count_0 1 ) )(= off_counter.0_0 0 ) ) 
(ite (= command_to_heater.1_0 1 ) (= on_counter.0_0 0 )(= on_counter.0_0 (+ on_count_0 1 ) ) ) 
(ite (= command_to_heater.1_0 3 ) (= spec.select85_0 70 )(= spec.select85_0 100 ) ) 
(ite (= command_to_heater.1_0 1 ) (= uVal.0_0 20 )(= uVal.0_0 spec.select85_0 ) ) 
(= next_u_1 uVal.0_0 ) 
(= cmd_to_heater_1 command_to_heater.1_0 ) 
(= chat_detect_1 (+ chatter_detect.0_0 inc_0 ) ) 
(= previous_cmd_to_heater_1 command_to_heater.1_0 ) 
(= on_count_1 on_counter.0_0 ) 
(= off_count_1 off_counter.0_0 ) 
  
 (= next_u_1 u_1_0 )  
 (= lt_1_t (+ lt_1_0 (* 1 time_1 ))) (= gt_1_t (+ gt_1_0 (* 1 time_1 ))) (= u_1_t (+ u_1_0 (* 0 time_1 ))) 
 (= [gt_1_t lt_1_t temperature_1_t u_1_t ] (integral 0. time_1 [gt_1_0 lt_1_0 temperature_1_0 u_1_0 ] flow_1))  
 (<= lt_1_t 0.3) (<= lt_1_0 0.3) (= mode_2 1)  
 (= mode_2 1) (<= lt_1_t 0.3) (= gt_2_0 gt_1_t) (= lt_2_0 0)  
 (= temperature_2_0 temperature_1_t)(= state_temperature_1 temperature_1_t )  
 (=> (not (and (>= state_temperature_1 66 ) (< state_temperature_1 70 ) ) ) 
(and 
(=> (< state_temperature_1 70 ) 
(and 
(ite (< state_temperature_1 66 ) (= ._1 2 )(= ._1 previous_cmd_to_heater_1 ) ) 
) 
) 
) 
) 
(=> (and (>= state_temperature_1 66 ) (< state_temperature_1 70 ) ) (= command_to_heater.0_1 3 )) 
(=> (not (< state_temperature_1 70 ) ) (= command_to_heater.0_1 1 )) 
(=> (< state_temperature_1 70 ) (= command_to_heater.0_1 ._1 )) 
(ite (or (> on_count_1 4 ) (> off_count_1 4 ) ) (= chatter_detect.0_1 0 )(= chatter_detect.0_1 chat_detect_1 ) ) 
(ite (not (= command_to_heater.0_1 previous_cmd_to_heater_1 )) (= inc_1 1 ) (= inc_1 0 )) 
(ite (> (+ chatter_detect.0_1 inc_1 ) 4 ) (= command_to_heater.1_1 previous_cmd_to_heater_1 )(= command_to_heater.1_1 command_to_heater.0_1 ) ) 
(ite (= command_to_heater.1_1 1 ) (= off_counter.0_1 (+ off_count_1 1 ) )(= off_counter.0_1 0 ) ) 
(ite (= command_to_heater.1_1 1 ) (= on_counter.0_1 0 )(= on_counter.0_1 (+ on_count_1 1 ) ) ) 
(ite (= command_to_heater.1_1 3 ) (= spec.select85_1 70 )(= spec.select85_1 100 ) ) 
(ite (= command_to_heater.1_1 1 ) (= uVal.0_1 20 )(= uVal.0_1 spec.select85_1 ) ) 
(= next_u_2 uVal.0_1 ) 
(= cmd_to_heater_2 command_to_heater.1_1 ) 
(= chat_detect_2 (+ chatter_detect.0_1 inc_1 ) ) 
(= previous_cmd_to_heater_2 command_to_heater.1_1 ) 
(= on_count_2 on_counter.0_1 ) 
(= off_count_2 off_counter.0_1 ) 
  
 (= next_u_2 u_2_0 )  
 (= lt_2_t (+ lt_2_0 (* 1 time_2 ))) (= gt_2_t (+ gt_2_0 (* 1 time_2 ))) (= u_2_t (+ u_2_0 (* 0 time_2 ))) 
 (= [gt_2_t lt_2_t temperature_2_t u_2_t ] (integral 0. time_2 [gt_2_0 lt_2_0 temperature_2_0 u_2_0 ] flow_1))  
 (<= lt_2_t 0.3) (<= lt_2_0 0.3) (= mode_3 1)  
 (= mode_3 1) (<= lt_2_t 0.3) (= gt_3_0 gt_2_t) (= lt_3_0 0)  
 (= temperature_3_0 temperature_2_t)(= state_temperature_2 temperature_2_t )  
 (=> (not (and (>= state_temperature_2 66 ) (< state_temperature_2 70 ) ) ) 
(and 
(=> (< state_temperature_2 70 ) 
(and 
(ite (< state_temperature_2 66 ) (= ._2 2 )(= ._2 previous_cmd_to_heater_2 ) ) 
) 
) 
) 
) 
(=> (and (>= state_temperature_2 66 ) (< state_temperature_2 70 ) ) (= command_to_heater.0_2 3 )) 
(=> (not (< state_temperature_2 70 ) ) (= command_to_heater.0_2 1 )) 
(=> (< state_temperature_2 70 ) (= command_to_heater.0_2 ._2 )) 
(ite (or (> on_count_2 4 ) (> off_count_2 4 ) ) (= chatter_detect.0_2 0 )(= chatter_detect.0_2 chat_detect_2 ) ) 
(ite (not (= command_to_heater.0_2 previous_cmd_to_heater_2 )) (= inc_2 1 ) (= inc_2 0 )) 
(ite (> (+ chatter_detect.0_2 inc_2 ) 4 ) (= command_to_heater.1_2 previous_cmd_to_heater_2 )(= command_to_heater.1_2 command_to_heater.0_2 ) ) 
(ite (= command_to_heater.1_2 1 ) (= off_counter.0_2 (+ off_count_2 1 ) )(= off_counter.0_2 0 ) ) 
(ite (= command_to_heater.1_2 1 ) (= on_counter.0_2 0 )(= on_counter.0_2 (+ on_count_2 1 ) ) ) 
(ite (= command_to_heater.1_2 3 ) (= spec.select85_2 70 )(= spec.select85_2 100 ) ) 
(ite (= command_to_heater.1_2 1 ) (= uVal.0_2 20 )(= uVal.0_2 spec.select85_2 ) ) 
(= next_u_3 uVal.0_2 ) 
(= cmd_to_heater_3 command_to_heater.1_2 ) 
(= chat_detect_3 (+ chatter_detect.0_2 inc_2 ) ) 
(= previous_cmd_to_heater_3 command_to_heater.1_2 ) 
(= on_count_3 on_counter.0_2 ) 
(= off_count_3 off_counter.0_2 ) 
  
 (= next_u_3 u_3_0 )  
 (= lt_3_t (+ lt_3_0 (* 1 time_3 ))) (= gt_3_t (+ gt_3_0 (* 1 time_3 ))) (= u_3_t (+ u_3_0 (* 0 time_3 ))) 
 (= [gt_3_t lt_3_t temperature_3_t u_3_t ] (integral 0. time_3 [gt_3_0 lt_3_0 temperature_3_0 u_3_0 ] flow_1))  
 (<= lt_3_t 0.3) (<= lt_3_0 0.3) (= mode_4 1)  
 (= mode_4 1) (<= lt_3_t 0.3) (= gt_4_0 gt_3_t) (= lt_4_0 0)  
 (= temperature_4_0 temperature_3_t)(= state_temperature_3 temperature_3_t )  
 (=> (not (and (>= state_temperature_3 66 ) (< state_temperature_3 70 ) ) ) 
(and 
(=> (< state_temperature_3 70 ) 
(and 
(ite (< state_temperature_3 66 ) (= ._3 2 )(= ._3 previous_cmd_to_heater_3 ) ) 
) 
) 
) 
) 
(=> (and (>= state_temperature_3 66 ) (< state_temperature_3 70 ) ) (= command_to_heater.0_3 3 )) 
(=> (not (< state_temperature_3 70 ) ) (= command_to_heater.0_3 1 )) 
(=> (< state_temperature_3 70 ) (= command_to_heater.0_3 ._3 )) 
(ite (or (> on_count_3 4 ) (> off_count_3 4 ) ) (= chatter_detect.0_3 0 )(= chatter_detect.0_3 chat_detect_3 ) ) 
(ite (not (= command_to_heater.0_3 previous_cmd_to_heater_3 )) (= inc_3 1 ) (= inc_3 0 )) 
(ite (> (+ chatter_detect.0_3 inc_3 ) 4 ) (= command_to_heater.1_3 previous_cmd_to_heater_3 )(= command_to_heater.1_3 command_to_heater.0_3 ) ) 
(ite (= command_to_heater.1_3 1 ) (= off_counter.0_3 (+ off_count_3 1 ) )(= off_counter.0_3 0 ) ) 
(ite (= command_to_heater.1_3 1 ) (= on_counter.0_3 0 )(= on_counter.0_3 (+ on_count_3 1 ) ) ) 
(ite (= command_to_heater.1_3 3 ) (= spec.select85_3 70 )(= spec.select85_3 100 ) ) 
(ite (= command_to_heater.1_3 1 ) (= uVal.0_3 20 )(= uVal.0_3 spec.select85_3 ) ) 
(= next_u_4 uVal.0_3 ) 
(= cmd_to_heater_4 command_to_heater.1_3 ) 
(= chat_detect_4 (+ chatter_detect.0_3 inc_3 ) ) 
(= previous_cmd_to_heater_4 command_to_heater.1_3 ) 
(= on_count_4 on_counter.0_3 ) 
(= off_count_4 off_counter.0_3 ) 
  
 (= next_u_4 u_4_0 )  
 (= lt_4_t (+ lt_4_0 (* 1 time_4 ))) (= gt_4_t (+ gt_4_0 (* 1 time_4 ))) (= u_4_t (+ u_4_0 (* 0 time_4 ))) 
 (= [gt_4_t lt_4_t temperature_4_t u_4_t ] (integral 0. time_4 [gt_4_0 lt_4_0 temperature_4_0 u_4_0 ] flow_1))  
 (<= lt_4_t 0.3) (<= lt_4_0 0.3) (= mode_5 1)  
 (= mode_5 1) (<= lt_4_t 0.3) (= gt_5_0 gt_4_t) (= lt_5_0 0)  
 (= temperature_5_0 temperature_4_t)(= state_temperature_4 temperature_4_t )  
 (=> (not (and (>= state_temperature_4 66 ) (< state_temperature_4 70 ) ) ) 
(and 
(=> (< state_temperature_4 70 ) 
(and 
(ite (< state_temperature_4 66 ) (= ._4 2 )(= ._4 previous_cmd_to_heater_4 ) ) 
) 
) 
) 
) 
(=> (and (>= state_temperature_4 66 ) (< state_temperature_4 70 ) ) (= command_to_heater.0_4 3 )) 
(=> (not (< state_temperature_4 70 ) ) (= command_to_heater.0_4 1 )) 
(=> (< state_temperature_4 70 ) (= command_to_heater.0_4 ._4 )) 
(ite (or (> on_count_4 4 ) (> off_count_4 4 ) ) (= chatter_detect.0_4 0 )(= chatter_detect.0_4 chat_detect_4 ) ) 
(ite (not (= command_to_heater.0_4 previous_cmd_to_heater_4 )) (= inc_4 1 ) (= inc_4 0 )) 
(ite (> (+ chatter_detect.0_4 inc_4 ) 4 ) (= command_to_heater.1_4 previous_cmd_to_heater_4 )(= command_to_heater.1_4 command_to_heater.0_4 ) ) 
(ite (= command_to_heater.1_4 1 ) (= off_counter.0_4 (+ off_count_4 1 ) )(= off_counter.0_4 0 ) ) 
(ite (= command_to_heater.1_4 1 ) (= on_counter.0_4 0 )(= on_counter.0_4 (+ on_count_4 1 ) ) ) 
(ite (= command_to_heater.1_4 3 ) (= spec.select85_4 70 )(= spec.select85_4 100 ) ) 
(ite (= command_to_heater.1_4 1 ) (= uVal.0_4 20 )(= uVal.0_4 spec.select85_4 ) ) 
(= next_u_5 uVal.0_4 ) 
(= cmd_to_heater_5 command_to_heater.1_4 ) 
(= chat_detect_5 (+ chatter_detect.0_4 inc_4 ) ) 
(= previous_cmd_to_heater_5 command_to_heater.1_4 ) 
(= on_count_5 on_counter.0_4 ) 
(= off_count_5 off_counter.0_4 ) 
  
 (= next_u_5 u_5_0 )  
 (= lt_5_t (+ lt_5_0 (* 1 time_5 ))) (= gt_5_t (+ gt_5_0 (* 1 time_5 ))) (= u_5_t (+ u_5_0 (* 0 time_5 ))) 
 (= [gt_5_t lt_5_t temperature_5_t u_5_t ] (integral 0. time_5 [gt_5_0 lt_5_0 temperature_5_0 u_5_0 ] flow_1))  
 (forall_t 1 [0 time_5] (<= lt_5_t 0.3))   
 (<= lt_5_t 0.3) (<= lt_5_0 0.3) (= mode_5 1)  
 (< temperature_5_t 52  ) ))
 (check-sat)
(exit)